20191231 62000.00 44800.00
20180621 62000.00 42200.00
20170906 62017.12 38625.06
20170512 62017.12 37153.01
20160906 62017.12 36731.32
20160525 62017.12 35786.09
20160505 62017.12 35711.67
20151008 58977.06 35824.92
